Route #1: 20 46 11 4 53 30 49 31 34 
Route #2: 16 41 33 38 7 59 
Route #3: 40 6 28 2 24 14 
Route #4: 3 21 10 45 50 39 
Route #5: 47 48 54 5 42 
Route #6: 18 35 43 56 12 9 51 32 
Route #7: 23 55 26 29 52 19 
Route #8: 58 22 36 1 44 25 
Route #9: 17 37 57 8 13 27 15 
cost 1625.1
execution_time 27.557
